(set-logic QF_FPABV)
(declare-fun b76 () (_ FP 8 24))
(declare-fun b495 () (_ FP 8 24))
(declare-fun b232 () (_ FP 11 53))
(declare-fun b69 () (_ FP 8 24))
(declare-fun b410 () (_ FP 8 24))
(declare-fun b441 () (_ FP 8 24))
(declare-fun b476 () (_ FP 8 24))
(declare-fun b242 () (_ FP 8 24))
(declare-fun b85 () (_ FP 11 53))
(declare-fun b504 () (_ FP 8 24))
(declare-fun b74 () (_ FP 11 53))
(declare-fun b405 () (_ FP 8 24))
(declare-fun b71 () (_ FP 8 24))
(declare-fun b446 () (_ FP 8 24))
(declare-fun b389 () (_ FP 8 24))
(declare-fun b384 () (_ FP 8 24))
(define-fun .3 () RoundingMode roundNearestTiesToEven)
(define-fun .9 () (_ FP 8 24) b69)
(define-fun .10 () (_ FP 8 24) b71)
(define-fun .11 () (_ FP 8 24) (/ .3 .9 .10))
(define-fun .12 () (_ FP 11 53) ((_ asFloat 11 53) .3 .11))
(define-fun .13 () (_ FP 11 53) b85)
(define-fun .14 () (_ FP 11 53) (* .3 .12 .13))
(define-fun .15 () (_ FP 8 24) (* .3 .11 .11))
(define-fun .16 () (_ FP 8 24) (- .15))
(define-fun .17 () (_ FP 8 24) (+ .3 .9 .16))
(define-fun .18 () (_ FP 11 53) ((_ asFloat 11 53) .3 .17))
(define-fun .19 () (_ FP 11 53) (/ .3 .18 .14))
(define-fun .20 () (_ FP 8 24) ((_ asFloat 8 24) .3 .19))
(define-fun .21 () (_ FP 8 24) (+ .3 .11 .20))
(define-fun .22 () (_ FP 8 24) (* .3 .21 .21))
(define-fun .23 () (_ FP 8 24) (- .22))
(define-fun .24 () (_ FP 8 24) (+ .3 .9 .23))
(define-fun .25 () (_ FP 11 53) ((_ asFloat 11 53) .3 .24))
(define-fun .26 () (_ FP 8 24) ((_ asFloat 8 24) .3 .25))
(define-fun .27 () (_ FP 8 24) b504)
(define-fun .28 () Bool (= .26 .27))
(define-fun .29 () Bool (not .28))
(define-fun .30 () (_ FP 11 53) ((_ asFloat 11 53) .3 .21))
(define-fun .31 () (_ FP 11 53) (* .3 .13 .30))
(define-fun .32 () (_ FP 11 53) (/ .3 .25 .31))
(define-fun .33 () (_ FP 8 24) ((_ asFloat 8 24) .3 .32))
(define-fun .34 () (_ FP 8 24) (+ .3 .21 .33))
(define-fun .35 () (_ FP 8 24) (* .3 .34 .34))
(define-fun .36 () (_ FP 8 24) (- .35))
(define-fun .37 () (_ FP 8 24) (+ .3 .9 .36))
(define-fun .38 () (_ FP 11 53) ((_ asFloat 11 53) .3 .37))
(define-fun .39 () (_ FP 8 24) ((_ asFloat 8 24) .3 .38))
(define-fun .40 () (_ FP 8 24) b495)
(define-fun .41 () Bool (= .39 .40))
(define-fun .42 () Bool (not .41))
(define-fun .43 () (_ FP 8 24) b446)
(define-fun .44 () Bool (= .34 .43))
(define-fun .45 () Bool (not .44))
(define-fun .46 () (_ FP 11 53) ((_ asFloat 11 53) .3 .43))
(define-fun .47 () (_ FP 11 53) (* .3 .13 .46))
(define-fun .48 () (_ FP 8 24) (* .3 .43 .43))
(define-fun .49 () (_ FP 8 24) (- .48))
(define-fun .50 () (_ FP 8 24) (+ .3 .9 .49))
(define-fun .51 () (_ FP 11 53) ((_ asFloat 11 53) .3 .50))
(define-fun .52 () (_ FP 11 53) (/ .3 .51 .47))
(define-fun .53 () (_ FP 8 24) ((_ asFloat 8 24) .3 .52))
(define-fun .54 () (_ FP 8 24) (+ .3 .43 .53))
(define-fun .55 () (_ FP 8 24) (* .3 .54 .54))
(define-fun .56 () (_ FP 8 24) (- .55))
(define-fun .57 () (_ FP 8 24) (+ .3 .9 .56))
(define-fun .58 () (_ FP 11 53) ((_ asFloat 11 53) .3 .57))
(define-fun .59 () (_ FP 8 24) ((_ asFloat 8 24) .3 .58))
(define-fun .60 () (_ FP 8 24) b476)
(define-fun .61 () Bool (= .59 .60))
(define-fun .62 () Bool (not .61))
(define-fun .63 () (_ FP 8 24) b410)
(define-fun .64 () Bool (= .54 .63))
(define-fun .65 () Bool (not .64))
(define-fun .66 () (_ FP 11 53) ((_ asFloat 11 53) .3 .63))
(define-fun .67 () (_ FP 11 53) (* .3 .13 .66))
(define-fun .68 () (_ FP 8 24) (* .3 .63 .63))
(define-fun .69 () (_ FP 8 24) (- .68))
(define-fun .70 () (_ FP 8 24) (+ .3 .9 .69))
(define-fun .71 () (_ FP 11 53) ((_ asFloat 11 53) .3 .70))
(define-fun .72 () (_ FP 11 53) (/ .3 .71 .67))
(define-fun .73 () (_ FP 8 24) ((_ asFloat 8 24) .3 .72))
(define-fun .74 () (_ FP 8 24) (+ .3 .63 .73))
(define-fun .75 () (_ FP 8 24) (* .3 .74 .74))
(define-fun .76 () (_ FP 8 24) (- .75))
(define-fun .77 () (_ FP 8 24) (+ .3 .9 .76))
(define-fun .78 () (_ FP 11 53) ((_ asFloat 11 53) .3 .77))
(define-fun .79 () (_ FP 8 24) ((_ asFloat 8 24) .3 .78))
(define-fun .80 () (_ FP 8 24) b441)
(define-fun .81 () Bool (= .79 .80))
(define-fun .82 () Bool (not .81))
(define-fun .83 () (_ FP 8 24) b389)
(define-fun .84 () Bool (= .74 .83))
(define-fun .85 () Bool (not .84))
(define-fun .86 () (_ FP 11 53) ((_ asFloat 11 53) .3 .83))
(define-fun .87 () (_ FP 11 53) (* .3 .13 .86))
(define-fun .88 () (_ FP 8 24) (* .3 .83 .83))
(define-fun .89 () (_ FP 8 24) (- .88))
(define-fun .90 () (_ FP 8 24) (+ .3 .9 .89))
(define-fun .91 () (_ FP 11 53) ((_ asFloat 11 53) .3 .90))
(define-fun .92 () (_ FP 11 53) (/ .3 .91 .87))
(define-fun .93 () (_ FP 8 24) ((_ asFloat 8 24) .3 .92))
(define-fun .94 () (_ FP 8 24) (+ .3 .83 .93))
(define-fun .95 () (_ FP 8 24) (* .3 .94 .94))
(define-fun .96 () (_ FP 8 24) (- .95))
(define-fun .97 () (_ FP 8 24) (+ .3 .9 .96))
(define-fun .98 () (_ FP 11 53) ((_ asFloat 11 53) .3 .97))
(define-fun .99 () (_ FP 8 24) ((_ asFloat 8 24) .3 .98))
(define-fun .100 () (_ FP 8 24) b405)
(define-fun .101 () Bool (= .99 .100))
(define-fun .102 () Bool (not .101))
(define-fun .103 () (_ FP 11 53) b232)
(define-fun .104 () (_ FP 8 24) ((_ asFloat 8 24) .3 .103))
(define-fun .105 () (_ FP 8 24) b384)
(define-fun .106 () Bool (= .104 .105))
(define-fun .107 () Bool (not .106))
(define-fun .108 () (_ FP 8 24) b76)
(define-fun .109 () Bool (== .9 .108))
(define-fun .110 () Bool (not .109))
(define-fun .111 () Bool (<= .108 .9))
(define-fun .112 () Bool (and .110 .111))
(define-fun .113 () Bool (<= .108 .104))
(define-fun .114 () Bool (not .113))
(define-fun .115 () Bool (and .112 .114))
(define-fun .116 () (_ FP 8 24) (- .104))
(define-fun .117 () Bool (= .105 .116))
(define-fun .118 () Bool (and .115 .117))
(define-fun .119 () Bool (and .107 .118))
(define-fun .120 () Bool (<= .108 .99))
(define-fun .121 () Bool (not .120))
(define-fun .122 () Bool (and .119 .121))
(define-fun .123 () (_ FP 8 24) (- .99))
(define-fun .124 () Bool (= .100 .123))
(define-fun .125 () Bool (and .122 .124))
(define-fun .126 () Bool (and .102 .125))
(define-fun .127 () Bool (= .63 .83))
(define-fun .128 () Bool (and .126 .127))
(define-fun .129 () Bool (and .85 .128))
(define-fun .130 () (_ FP 11 53) ((_ asFloat 11 53) .3 .80))
(define-fun .131 () (_ FP 11 53) b74)
(define-fun .132 () Bool (<= .130 .131))
(define-fun .133 () Bool (not .132))
(define-fun .134 () Bool (and .129 .133))
(define-fun .135 () Bool (<= .108 .79))
(define-fun .136 () Bool (not .135))
(define-fun .137 () Bool (and .134 .136))
(define-fun .138 () (_ FP 8 24) (- .79))
(define-fun .139 () Bool (= .80 .138))
(define-fun .140 () Bool (and .137 .139))
(define-fun .141 () Bool (and .82 .140))
(define-fun .142 () Bool (= .43 .63))
(define-fun .143 () Bool (and .141 .142))
(define-fun .144 () Bool (and .65 .143))
(define-fun .145 () (_ FP 11 53) ((_ asFloat 11 53) .3 .60))
(define-fun .146 () Bool (<= .145 .131))
(define-fun .147 () Bool (not .146))
(define-fun .148 () Bool (and .144 .147))
(define-fun .149 () Bool (<= .108 .59))
(define-fun .150 () Bool (not .149))
(define-fun .151 () Bool (and .148 .150))
(define-fun .152 () (_ FP 8 24) (- .59))
(define-fun .153 () Bool (= .60 .152))
(define-fun .154 () Bool (and .151 .153))
(define-fun .155 () Bool (and .62 .154))
(define-fun .156 () Bool (= .21 .43))
(define-fun .157 () Bool (and .155 .156))
(define-fun .158 () (_ FP 11 53) ((_ asFloat 11 53) .3 .27))
(define-fun .159 () Bool (<= .158 .131))
(define-fun .160 () Bool (and .157 .159))
(define-fun .161 () Bool (and .45 .160))
(define-fun .162 () (_ FP 11 53) ((_ asFloat 11 53) .3 .40))
(define-fun .163 () Bool (<= .162 .131))
(define-fun .164 () Bool (not .163))
(define-fun .165 () Bool (and .161 .164))
(define-fun .166 () Bool (<= .108 .39))
(define-fun .167 () Bool (not .166))
(define-fun .168 () Bool (and .165 .167))
(define-fun .169 () (_ FP 8 24) (- .39))
(define-fun .170 () Bool (= .40 .169))
(define-fun .171 () Bool (and .168 .170))
(define-fun .172 () Bool (and .42 .171))
(define-fun .173 () Bool (<= .108 .26))
(define-fun .174 () Bool (not .173))
(define-fun .175 () Bool (and .172 .174))
(define-fun .176 () (_ FP 8 24) (- .26))
(define-fun .177 () Bool (= .27 .176))
(define-fun .178 () Bool (and .175 .177))
(define-fun .179 () (_ FP 8 24) b242)
(define-fun .180 () Bool (<= .105 .179))
(define-fun .181 () Bool (not .180))
(define-fun .182 () Bool (and .178 .181))
(define-fun .183 () Bool (and .29 .182))
(assert .183)
(check-sat)
